p cnf 210 1262
1 2 3 4 5 6 7 0
8 9 10 11 12 13 14 0
15 16 17 18 19 20 21 0
22 23 24 25 26 27 28 0
29 30 31 32 33 34 35 0
36 37 38 39 40 41 42 0
43 44 45 46 47 48 49 0
50 51 52 53 54 55 56 0
57 58 59 60 61 62 63 0
64 65 66 67 68 69 70 0
71 72 73 74 75 76 77 0
78 79 80 81 82 83 84 0
85 86 87 88 89 90 91 0
92 93 94 95 96 97 98 0
99 100 101 102 103 104 105 0
106 107 108 109 110 111 112 0
113 114 115 116 117 118 119 0
120 121 122 123 124 125 126 0
127 128 129 130 131 132 133 0
134 135 136 137 138 139 140 0
141 142 143 144 145 146 147 0
148 149 150 151 152 153 154 0
155 156 157 158 159 160 161 0
162 163 164 165 166 167 168 0
169 170 171 172 173 174 175 0
176 177 178 179 180 181 182 0
183 184 185 186 187 188 189 0
190 191 192 193 194 195 196 0
197 198 199 200 201 202 203 0
204 205 206 207 208 209 210 0
-1 -2 0
-1 -3 0
-1 -4 0
-1 -5 0
-1 -6 0
-1 -7 0
-2 -3 0
-2 -4 0
-2 -5 0
-2 -6 0
-2 -7 0
-3 -4 0
-3 -5 0
-3 -6 0
-3 -7 0
-4 -5 0
-4 -6 0
-4 -7 0
-5 -6 0
-5 -7 0
-6 -7 0
-8 -9 0
-8 -10 0
-8 -11 0
-8 -12 0
-8 -13 0
-8 -14 0
-9 -10 0
-9 -11 0
-9 -12 0
-9 -13 0
-9 -14 0
-10 -11 0
-10 -12 0
-10 -13 0
-10 -14 0
-11 -12 0
-11 -13 0
-11 -14 0
-12 -13 0
-12 -14 0
-13 -14 0
-15 -16 0
-15 -17 0
-15 -18 0
-15 -19 0
-15 -20 0
-15 -21 0
-16 -17 0
-16 -18 0
-16 -19 0
-16 -20 0
-16 -21 0
-17 -18 0
-17 -19 0
-17 -20 0
-17 -21 0
-18 -19 0
-18 -20 0
-18 -21 0
-19 -20 0
-19 -21 0
-20 -21 0
-22 -23 0
-22 -24 0
-22 -25 0
-22 -26 0
-22 -27 0
-22 -28 0
-23 -24 0
-23 -25 0
-23 -26 0
-23 -27 0
-23 -28 0
-24 -25 0
-24 -26 0
-24 -27 0
-24 -28 0
-25 -26 0
-25 -27 0
-25 -28 0
-26 -27 0
-26 -28 0
-27 -28 0
-29 -30 0
-29 -31 0
-29 -32 0
-29 -33 0
-29 -34 0
-29 -35 0
-30 -31 0
-30 -32 0
-30 -33 0
-30 -34 0
-30 -35 0
-31 -32 0
-31 -33 0
-31 -34 0
-31 -35 0
-32 -33 0
-32 -34 0
-32 -35 0
-33 -34 0
-33 -35 0
-34 -35 0
-36 -37 0
-36 -38 0
-36 -39 0
-36 -40 0
-36 -41 0
-36 -42 0
-37 -38 0
-37 -39 0
-37 -40 0
-37 -41 0
-37 -42 0
-38 -39 0
-38 -40 0
-38 -41 0
-38 -42 0
-39 -40 0
-39 -41 0
-39 -42 0
-40 -41 0
-40 -42 0
-41 -42 0
-43 -44 0
-43 -45 0
-43 -46 0
-43 -47 0
-43 -48 0
-43 -49 0
-44 -45 0
-44 -46 0
-44 -47 0
-44 -48 0
-44 -49 0
-45 -46 0
-45 -47 0
-45 -48 0
-45 -49 0
-46 -47 0
-46 -48 0
-46 -49 0
-47 -48 0
-47 -49 0
-48 -49 0
-50 -51 0
-50 -52 0
-50 -53 0
-50 -54 0
-50 -55 0
-50 -56 0
-51 -52 0
-51 -53 0
-51 -54 0
-51 -55 0
-51 -56 0
-52 -53 0
-52 -54 0
-52 -55 0
-52 -56 0
-53 -54 0
-53 -55 0
-53 -56 0
-54 -55 0
-54 -56 0
-55 -56 0
-57 -58 0
-57 -59 0
-57 -60 0
-57 -61 0
-57 -62 0
-57 -63 0
-58 -59 0
-58 -60 0
-58 -61 0
-58 -62 0
-58 -63 0
-59 -60 0
-59 -61 0
-59 -62 0
-59 -63 0
-60 -61 0
-60 -62 0
-60 -63 0
-61 -62 0
-61 -63 0
-62 -63 0
-64 -65 0
-64 -66 0
-64 -67 0
-64 -68 0
-64 -69 0
-64 -70 0
-65 -66 0
-65 -67 0
-65 -68 0
-65 -69 0
-65 -70 0
-66 -67 0
-66 -68 0
-66 -69 0
-66 -70 0
-67 -68 0
-67 -69 0
-67 -70 0
-68 -69 0
-68 -70 0
-69 -70 0
-71 -72 0
-71 -73 0
-71 -74 0
-71 -75 0
-71 -76 0
-71 -77 0
-72 -73 0
-72 -74 0
-72 -75 0
-72 -76 0
-72 -77 0
-73 -74 0
-73 -75 0
-73 -76 0
-73 -77 0
-74 -75 0
-74 -76 0
-74 -77 0
-75 -76 0
-75 -77 0
-76 -77 0
-78 -79 0
-78 -80 0
-78 -81 0
-78 -82 0
-78 -83 0
-78 -84 0
-79 -80 0
-79 -81 0
-79 -82 0
-79 -83 0
-79 -84 0
-80 -81 0
-80 -82 0
-80 -83 0
-80 -84 0
-81 -82 0
-81 -83 0
-81 -84 0
-82 -83 0
-82 -84 0
-83 -84 0
-85 -86 0
-85 -87 0
-85 -88 0
-85 -89 0
-85 -90 0
-85 -91 0
-86 -87 0
-86 -88 0
-86 -89 0
-86 -90 0
-86 -91 0
-87 -88 0
-87 -89 0
-87 -90 0
-87 -91 0
-88 -89 0
-88 -90 0
-88 -91 0
-89 -90 0
-89 -91 0
-90 -91 0
-92 -93 0
-92 -94 0
-92 -95 0
-92 -96 0
-92 -97 0
-92 -98 0
-93 -94 0
-93 -95 0
-93 -96 0
-93 -97 0
-93 -98 0
-94 -95 0
-94 -96 0
-94 -97 0
-94 -98 0
-95 -96 0
-95 -97 0
-95 -98 0
-96 -97 0
-96 -98 0
-97 -98 0
-99 -100 0
-99 -101 0
-99 -102 0
-99 -103 0
-99 -104 0
-99 -105 0
-100 -101 0
-100 -102 0
-100 -103 0
-100 -104 0
-100 -105 0
-101 -102 0
-101 -103 0
-101 -104 0
-101 -105 0
-102 -103 0
-102 -104 0
-102 -105 0
-103 -104 0
-103 -105 0
-104 -105 0
-106 -107 0
-106 -108 0
-106 -109 0
-106 -110 0
-106 -111 0
-106 -112 0
-107 -108 0
-107 -109 0
-107 -110 0
-107 -111 0
-107 -112 0
-108 -109 0
-108 -110 0
-108 -111 0
-108 -112 0
-109 -110 0
-109 -111 0
-109 -112 0
-110 -111 0
-110 -112 0
-111 -112 0
-113 -114 0
-113 -115 0
-113 -116 0
-113 -117 0
-113 -118 0
-113 -119 0
-114 -115 0
-114 -116 0
-114 -117 0
-114 -118 0
-114 -119 0
-115 -116 0
-115 -117 0
-115 -118 0
-115 -119 0
-116 -117 0
-116 -118 0
-116 -119 0
-117 -118 0
-117 -119 0
-118 -119 0
-120 -121 0
-120 -122 0
-120 -123 0
-120 -124 0
-120 -125 0
-120 -126 0
-121 -122 0
-121 -123 0
-121 -124 0
-121 -125 0
-121 -126 0
-122 -123 0
-122 -124 0
-122 -125 0
-122 -126 0
-123 -124 0
-123 -125 0
-123 -126 0
-124 -125 0
-124 -126 0
-125 -126 0
-127 -128 0
-127 -129 0
-127 -130 0
-127 -131 0
-127 -132 0
-127 -133 0
-128 -129 0
-128 -130 0
-128 -131 0
-128 -132 0
-128 -133 0
-129 -130 0
-129 -131 0
-129 -132 0
-129 -133 0
-130 -131 0
-130 -132 0
-130 -133 0
-131 -132 0
-131 -133 0
-132 -133 0
-134 -135 0
-134 -136 0
-134 -137 0
-134 -138 0
-134 -139 0
-134 -140 0
-135 -136 0
-135 -137 0
-135 -138 0
-135 -139 0
-135 -140 0
-136 -137 0
-136 -138 0
-136 -139 0
-136 -140 0
-137 -138 0
-137 -139 0
-137 -140 0
-138 -139 0
-138 -140 0
-139 -140 0
-141 -142 0
-141 -143 0
-141 -144 0
-141 -145 0
-141 -146 0
-141 -147 0
-142 -143 0
-142 -144 0
-142 -145 0
-142 -146 0
-142 -147 0
-143 -144 0
-143 -145 0
-143 -146 0
-143 -147 0
-144 -145 0
-144 -146 0
-144 -147 0
-145 -146 0
-145 -147 0
-146 -147 0
-148 -149 0
-148 -150 0
-148 -151 0
-148 -152 0
-148 -153 0
-148 -154 0
-149 -150 0
-149 -151 0
-149 -152 0
-149 -153 0
-149 -154 0
-150 -151 0
-150 -152 0
-150 -153 0
-150 -154 0
-151 -152 0
-151 -153 0
-151 -154 0
-152 -153 0
-152 -154 0
-153 -154 0
-155 -156 0
-155 -157 0
-155 -158 0
-155 -159 0
-155 -160 0
-155 -161 0
-156 -157 0
-156 -158 0
-156 -159 0
-156 -160 0
-156 -161 0
-157 -158 0
-157 -159 0
-157 -160 0
-157 -161 0
-158 -159 0
-158 -160 0
-158 -161 0
-159 -160 0
-159 -161 0
-160 -161 0
-162 -163 0
-162 -164 0
-162 -165 0
-162 -166 0
-162 -167 0
-162 -168 0
-163 -164 0
-163 -165 0
-163 -166 0
-163 -167 0
-163 -168 0
-164 -165 0
-164 -166 0
-164 -167 0
-164 -168 0
-165 -166 0
-165 -167 0
-165 -168 0
-166 -167 0
-166 -168 0
-167 -168 0
-169 -170 0
-169 -171 0
-169 -172 0
-169 -173 0
-169 -174 0
-169 -175 0
-170 -171 0
-170 -172 0
-170 -173 0
-170 -174 0
-170 -175 0
-171 -172 0
-171 -173 0
-171 -174 0
-171 -175 0
-172 -173 0
-172 -174 0
-172 -175 0
-173 -174 0
-173 -175 0
-174 -175 0
-176 -177 0
-176 -178 0
-176 -179 0
-176 -180 0
-176 -181 0
-176 -182 0
-177 -178 0
-177 -179 0
-177 -180 0
-177 -181 0
-177 -182 0
-178 -179 0
-178 -180 0
-178 -181 0
-178 -182 0
-179 -180 0
-179 -181 0
-179 -182 0
-180 -181 0
-180 -182 0
-181 -182 0
-183 -184 0
-183 -185 0
-183 -186 0
-183 -187 0
-183 -188 0
-183 -189 0
-184 -185 0
-184 -186 0
-184 -187 0
-184 -188 0
-184 -189 0
-185 -186 0
-185 -187 0
-185 -188 0
-185 -189 0
-186 -187 0
-186 -188 0
-186 -189 0
-187 -188 0
-187 -189 0
-188 -189 0
-190 -191 0
-190 -192 0
-190 -193 0
-190 -194 0
-190 -195 0
-190 -196 0
-191 -192 0
-191 -193 0
-191 -194 0
-191 -195 0
-191 -196 0
-192 -193 0
-192 -194 0
-192 -195 0
-192 -196 0
-193 -194 0
-193 -195 0
-193 -196 0
-194 -195 0
-194 -196 0
-195 -196 0
-197 -198 0
-197 -199 0
-197 -200 0
-197 -201 0
-197 -202 0
-197 -203 0
-198 -199 0
-198 -200 0
-198 -201 0
-198 -202 0
-198 -203 0
-199 -200 0
-199 -201 0
-199 -202 0
-199 -203 0
-200 -201 0
-200 -202 0
-200 -203 0
-201 -202 0
-201 -203 0
-202 -203 0
-204 -205 0
-204 -206 0
-204 -207 0
-204 -208 0
-204 -209 0
-204 -210 0
-205 -206 0
-205 -207 0
-205 -208 0
-205 -209 0
-205 -210 0
-206 -207 0
-206 -208 0
-206 -209 0
-206 -210 0
-207 -208 0
-207 -209 0
-207 -210 0
-208 -209 0
-208 -210 0
-209 -210 0
-3 -69 0
-2 -66 0
-3 -67 0
-7 -65 0
-4 -69 0
-5 -65 0
-2 -68 0
-4 -64 0
-6 -65 0
-1 -64 0
-3 -68 0
-2 -67 0
-1 -69 0
-5 -64 0
-5 -141 0
-5 -145 0
-4 -142 0
-4 -144 0
-5 -144 0
-1 -146 0
-4 -145 0
-7 -145 0
-1 -142 0
-3 -142 0
-5 -142 0
-6 -142 0
-7 -142 0
-2 -145 0
-14 -79 0
-13 -82 0
-11 -80 0
-8 -84 0
-12 -81 0
-9 -78 0
-10 -84 0
-11 -78 0
-10 -80 0
-10 -79 0
-12 -82 0
-8 -83 0
-9 -79 0
-11 -82 0
-17 -78 0
-21 -82 0
-15 -80 0
-16 -79 0
-16 -80 0
-19 -79 0
-17 -82 0
-16 -84 0
-18 -82 0
-21 -83 0
-15 -81 0
-17 -84 0
-15 -79 0
-17 -80 0
-19 -130 0
-21 -127 0
-15 -131 0
-16 -132 0
-15 -130 0
-18 -132 0
-19 -131 0
-17 -133 0
-18 -127 0
-20 -131 0
-17 -129 0
-19 -129 0
-19 -132 0
-21 -129 0
-26 -91 0
-26 -88 0
-26 -86 0
-25 -89 0
-25 -87 0
-27 -86 0
-26 -89 0
-22 -89 0
-26 -90 0
-22 -88 0
-25 -88 0
-26 -85 0
-27 -89 0
-26 -87 0
-26 -138 0
-28 -140 0
-23 -135 0
-27 -139 0
-28 -136 0
-28 -137 0
-22 -138 0
-23 -136 0
-24 -139 0
-27 -136 0
-25 -136 0
-26 -136 0
-24 -136 0
-27 -138 0
-25 -184 0
-26 -183 0
-24 -188 0
-24 -189 0
-26 -189 0
-22 -183 0
-24 -183 0
-24 -185 0
-26 -188 0
-27 -187 0
-23 -184 0
-23 -188 0
-22 -188 0
-25 -188 0
-22 -198 0
-23 -200 0
-27 -203 0
-24 -199 0
-23 -201 0
-26 -200 0
-24 -203 0
-23 -198 0
-25 -202 0
-27 -202 0
-24 -197 0
-28 -197 0
-28 -198 0
-28 -201 0
-30 -128 0
-33 -133 0
-32 -133 0
-35 -128 0
-31 -128 0
-35 -132 0
-33 -130 0
-31 -132 0
-32 -127 0
-29 -132 0
-32 -131 0
-29 -133 0
-33 -132 0
-35 -130 0
-37 -122 0
-39 -122 0
-42 -122 0
-42 -126 0
-40 -124 0
-41 -122 0
-40 -126 0
-37 -125 0
-40 -123 0
-42 -125 0
-36 -122 0
-37 -121 0
-42 -121 0
-38 -120 0
-38 -164 0
-36 -163 0
-39 -163 0
-41 -167 0
-38 -163 0
-36 -164 0
-39 -166 0
-37 -168 0
-39 -164 0
-36 -167 0
-42 -163 0
-40 -165 0
-41 -164 0
-37 -162 0
-42 -204 0
-36 -210 0
-39 -204 0
-37 -209 0
-40 -208 0
-41 -210 0
-37 -208 0
-41 -207 0
-36 -207 0
-37 -204 0
-37 -207 0
-39 -206 0
-42 -207 0
-38 -205 0
-45 -90 0
-45 -89 0
-46 -85 0
-49 -90 0
-47 -91 0
-49 -86 0
-47 -86 0
-44 -91 0
-47 -90 0
-45 -91 0
-48 -86 0
-44 -86 0
-47 -85 0
-48 -89 0
-45 -185 0
-43 -186 0
-47 -183 0
-43 -187 0
-45 -183 0
-44 -187 0
-46 -189 0
-47 -189 0
-46 -184 0
-48 -189 0
-45 -188 0
-48 -183 0
-47 -188 0
-48 -186 0
-56 -71 0
-56 -74 0
-53 -71 0
-50 -75 0
-51 -77 0
-53 -74 0
-56 -75 0
-54 -76 0
-50 -73 0
-53 -72 0
-54 -71 0
-53 -73 0
-52 -76 0
-56 -77 0
-50 -160 0
-55 -161 0
-54 -157 0
-50 -155 0
-53 -161 0
-53 -160 0
-56 -161 0
-54 -156 0
-53 -157 0
-56 -159 0
-54 -155 0
-55 -157 0
-51 -155 0
-52 -156 0
-56 -196 0
-55 -193 0
-51 -195 0
-54 -191 0
-50 -196 0
-55 -190 0
-55 -194 0
-54 -192 0
-55 -195 0
-51 -193 0
-54 -193 0
-50 -190 0
-56 -190 0
-52 -195 0
-59 -75 0
-59 -77 0
-60 -75 0
-57 -71 0
-58 -73 0
-63 -71 0
-57 -73 0
-61 -71 0
-61 -75 0
-62 -73 0
-61 -73 0
-59 -71 0
-61 -74 0
-57 -75 0
-67 -73 0
-70 -73 0
-69 -71 0
-68 -71 0
-69 -77 0
-68 -76 0
-70 -75 0
-64 -76 0
-66 -71 0
-66 -74 0
-64 -74 0
-64 -75 0
-70 -77 0
-65 -71 0
-70 -149 0
-65 -153 0
-70 -148 0
-66 -150 0
-69 -152 0
-64 -150 0
-67 -150 0
-65 -151 0
-65 -150 0
-64 -153 0
-66 -152 0
-69 -148 0
-64 -154 0
-69 -149 0
-78 -146 0
-84 -141 0
-79 -146 0
-78 -142 0
-83 -143 0
-83 -145 0
-79 -144 0
-81 -142 0
-79 -143 0
-79 -141 0
-81 -145 0
-82 -141 0
-80 -145 0
-80 -143 0
-91 -154 0
-88 -151 0
-89 -152 0
-85 -154 0
-90 -153 0
-91 -148 0
-89 -150 0
-89 -154 0
-85 -148 0
-90 -150 0
-91 -151 0
-91 -149 0
-87 -153 0
-88 -152 0
-86 -174 0
-86 -171 0
-85 -171 0
-88 -173 0
-89 -172 0
-87 -171 0
-90 -173 0
-88 -169 0
-91 -173 0
-87 -170 0
-86 -170 0
-91 -172 0
-90 -169 0
-88 -172 0
-97 -99 0
-94 -99 0
-95 -104 0
-96 -99 0
-98 -102 0
-97 -102 0
-92 -100 0
-92 -99 0
-98 -100 0
-93 -101 0
-98 -104 0
-96 -105 0
-96 -101 0
-97 -100 0
-95 -159 0
-97 -156 0
-92 -159 0
-93 -157 0
-93 -155 0
-96 -158 0
-98 -158 0
-93 -158 0
-97 -160 0
-92 -157 0
-97 -161 0
-95 -157 0
-98 -161 0
-92 -158 0
-95 -201 0
-97 -199 0
-93 -198 0
-98 -198 0
-93 -200 0
-97 -198 0
-92 -198 0
-96 -197 0
-92 -200 0
-93 -199 0
-93 -203 0
-92 -199 0
-94 -201 0
-96 -198 0
-102 -127 0
-100 -132 0
-104 -131 0
-99 -133 0
-99 -128 0
-105 -131 0
-101 -130 0
-100 -128 0
-102 -133 0
-105 -133 0
-103 -133 0
-103 -132 0
-100 -129 0
-104 -129 0
-105 -162 0
-103 -167 0
-103 -162 0
-103 -163 0
-99 -164 0
-105 -166 0
-102 -163 0
-99 -163 0
-100 -163 0
-103 -165 0
-102 -166 0
-101 -164 0
-100 -165 0
-104 -163 0
-106 -130 0
-109 -129 0
-108 -133 0
-111 -128 0
-108 -128 0
-109 -133 0
-107 -128 0
-111 -127 0
-106 -129 0
-109 -128 0
-110 -132 0
-107 -127 0
-106 -131 0
-108 -131 0
-112 -210 0
-111 -206 0
-110 -206 0
-111 -210 0
-108 -208 0
-106 -209 0
-111 -207 0
-109 -205 0
-109 -208 0
-107 -208 0
-106 -205 0
-107 -209 0
-108 -204 0
-106 -208 0
-117 -131 0
-115 -127 0
-115 -129 0
-115 -132 0
-118 -131 0
-113 -127 0
-119 -131 0
-118 -132 0
-117 -127 0
-113 -131 0
-119 -133 0
-115 -131 0
-113 -130 0
-114 -128 0
-113 -161 0
-115 -160 0
-119 -157 0
-117 -161 0
-113 -155 0
-117 -160 0
-119 -156 0
-114 -156 0
-115 -159 0
-117 -157 0
-114 -159 0
-116 -160 0
-115 -158 0
-116 -157 0
-115 -189 0
-118 -183 0
-114 -183 0
-115 -183 0
-116 -185 0
-119 -188 0
-119 -186 0
-114 -189 0
-114 -186 0
-118 -187 0
-115 -187 0
-117 -185 0
-116 -188 0
-118 -186 0
-132 -178 0
-128 -178 0
-128 -179 0
-130 -180 0
-129 -176 0
-130 -176 0
-132 -177 0
-130 -181 0
-129 -182 0
-133 -177 0
-133 -181 0
-131 -179 0
-133 -176 0
-131 -176 0
-127 -197 0
-130 -203 0
-130 -201 0
-127 -200 0
-133 -199 0
-131 -197 0
-127 -202 0
-129 -202 0
-133 -202 0
-133 -201 0
-128 -199 0
-133 -198 0
-128 -202 0
-132 -198 0
-138 -149 0
-139 -150 0
-139 -148 0
-139 -154 0
-139 -152 0
-140 -149 0
-140 -154 0
-139 -149 0
-137 -154 0
-136 -150 0
-140 -148 0
-140 -151 0
-137 -150 0
-137 -153 0
-140 -162 0
-140 -166 0
-135 -163 0
-138 -164 0
-138 -166 0
-137 -163 0
-136 -166 0
-136 -167 0
-135 -162 0
-140 -164 0
-140 -168 0
-137 -166 0
-135 -166 0
-134 -163 0
-134 -208 0
-135 -210 0
-137 -208 0
-137 -205 0
-138 -209 0
-140 -209 0
-139 -206 0
-138 -210 0
-139 -207 0
-136 -205 0
-138 -207 0
-136 -204 0
-137 -209 0
-138 -208 0
-157 -163 0
-157 -168 0
-156 -164 0
-158 -164 0
-158 -168 0
-160 -162 0
-158 -165 0
-160 -167 0
-161 -165 0
-158 -167 0
-155 -162 0
-161 -164 0
-155 -166 0
-161 -162 0
-155 -204 0
-160 -208 0
-158 -207 0
-159 -209 0
-159 -206 0
-158 -205 0
-161 -207 0
-158 -204 0
-160 -205 0
-160 -207 0
-156 -204 0
-161 -205 0
-158 -209 0
-161 -209 0
-162 -173 0
-165 -170 0
-164 -175 0
-167 -174 0
-168 -174 0
-162 -175 0
-163 -172 0
-166 -169 0
-165 -172 0
-166 -174 0
-168 -173 0
-165 -169 0
-165 -173 0
-168 -169 0
-175 -199 0
-172 -203 0
-173 -203 0
-169 -202 0
-173 -199 0
-169 -199 0
-172 -200 0
-172 -198 0
-175 -201 0
-169 -203 0
-174 -199 0
-173 -202 0
-172 -197 0
-169 -200 0
